Version identifier: 22.1.0.0 | 2022-03-09 | 1a383f8ce
CPXPARAM_Threads                                 1
CPXPARAM_MIP_Strategy_VariableSelect             3
CPXPARAM_TimeLimit                               599.99997904700001
1 of 1 MIP starts provided solutions.
MIP start 'm1' defined initial solution with objective 19.0000.
Tried aggregator 1 time.
MIP Presolve eliminated 15 rows and 0 columns.
MIP Presolve modified 6 coefficients.
Reduced MIP has 5005 rows, 10000 columns, and 117696 nonzeros.
Reduced MIP has 10000 binaries, 0 generals, 0 SOSs, and 0 indicators.
Presolve time = 0.08 sec. (62.84 ticks)
Probing time = 0.01 sec. (4.69 ticks)
Tried aggregator 1 time.
Detecting symmetries...
Reduced MIP has 5005 rows, 10000 columns, and 117696 nonzeros.
Reduced MIP has 10000 binaries, 0 generals, 0 SOSs, and 0 indicators.
Presolve time = 0.10 sec. (68.18 ticks)
Probing time = 0.01 sec. (4.69 ticks)
Clique table members: 3489.
MIP emphasis: balance optimality and feasibility.
MIP search method: dynamic search.
Parallel mode: none, using 1 thread.
Root relaxation solution time = 4.78 sec. (4672.80 ticks)

        Nodes                                         Cuts/
   Node  Left     Objective  IInf  Best Integer    Best Bound    ItCnt     Gap

*     0+    0                           19.0000    10000.0000              --- 
      0     0      500.0000  2163       19.0000      500.0000    10601     --- 
      0     0      500.0000   381       19.0000      Cuts: 19    13082     --- 
      0     0      500.0000   573       19.0000     Cuts: 265    20738     --- 
*     0+    0                          500.0000      500.0000             0.00%
      0     0        cutoff            500.0000      500.0000    20738    0.00%
Elapsed time = 90.82 sec. (85334.30 ticks, tree = 0.01 MB, solutions = 2)

Clique cuts applied:  117
Zero-half cuts applied:  40
Lift and project cuts applied:  1
Gomory fractional cuts applied:  3

Root node processing (before b&c):
  Real time             =   90.82 sec. (85335.12 ticks)
Sequential b&c:
  Real time             =    0.00 sec. (0.00 ticks)
                          ------------
Total (root+branch&cut) =   90.82 sec. (85335.12 ticks)
Primal:	500
Dual:	500
Status:	Optimal
Time:	90.83
Sequence:
	17
	13
	16
	8
	3
	7
	17
	13
	14
	17
	13
	16
	8
	13
	14
	17
	13
	14
	17
	13
	14
	8
	5
	7
	8
	5
	14
	8
	3
	14
	17
	3
	4
	18
	2
	5
	19
	4
	11
	1
	5
	12
	19
	16
	0
	9
	16
	0
	9
	13
	11
	1
	2
	11
	19
	2
	0
	10
	15
	0
	10
	2
	0
	10
	15
	0
	10
	15
	0
	10
	15
	0
	10
	15
	0
	10
	15
	0
	10
	15
	0
	10
	15
	0
	10
	2
	4
	18
	2
	4
	18
	3
	4
	17
	14
	13
	8
	16
	4
	17
	7
	13
	1
	11
	15
	1
	11
	2
	19
	7
	12
	1
	14
	12
	19
	7
	12
	19
	16
	12
	19
	16
	12
	1
	7
	12
	1
	7
	12
	19
	7
	12
	1
	7
	12
	1
	14
	12
	1
	5
	7
	8
	5
	7
	19
	12
	14
	19
	12
	16
	1
	12
	14
	19
	12
	16
	19
	12
	3
	1
	11
	15
	1
	11
	15
	1
	7
	12
	1
	16
	12
	19
	16
	4
	17
	7
	6
	17
	7
	5
	8
	16
	4
	17
	7
	5
	8
	7
	5
	8
	7
	13
	8
	7
	5
	8
	16
	4
	8
	16
	6
	8
	16
	6
	8
	5
	3
	18
	2
	4
	18
	2
	3
	18
	2
	4
	10
	12
	13
	1
	12
	13
	1
	11
	6
	9
	11
	6
	9
	11
	6
	9
	11
	6
	9
	11
	6
	9
	11
	13
	9
	0
	7
	9
	13
	11
	4
	9
	11
	3
	15
	10
	0
	15
	10
	0
	15
	10
	0
	15
	10
	0
	15
	10
	0
	2
	10
	0
	15
	10
	0
	15
	10
	0
	13
	9
	11
	13
	9
	11
	6
	9
	14
	0
	9
	16
	6
	8
	7
	6
	8
	16
	6
	17
	14
	3
	17
	13
	14
	17
	4
	7
	17
	4
	14
	17
	4
	7
	17
	4
	14
	8
	5
	14
	17
	3
	14
	17
	3
	16
	8
	4
	14
	17
	4
	16
	8
	13
	16
	8
	3
	14
	17
	6
	14
	17
	4
	16
	8
	13
	14
	8
	13
	5
	8
	16
	6
	17
	7
	13
	17
	7
	5
	8
	7
	5
	8
	5
	7
	8
	5
	14
	12
	19
	7
	12
	19
	7
	5
	8
	7
	5
	8
	5
	4
	18
	2
	3
	11
	9
	13
	11
	1
	15
	0
	10
	4
	12
	19
	3
	11
	9
	13
	11
	9
	5
	0
	9
	7
	13
	9
	11
	13
	9
	11
	13
	9
	5
	3
	18
	4
	2
	18
	4
	2
	18
	3
	2
	18
	3
	2
	18
	3
	2
	18
	4
	2
	18
	4
	2
	18
	4
	2
	18
	3
	2
	18
	3
	2
	18
	4
	2
	18
	4
	2
	1
	11
	15
	1
	16
	12
	19
	16
	12
	1
	7
	12
	19
	7
	12
	1
	14
	12
	1
	16
	12
	19
	16
	12
	1
	6
	11
	9
	6
	11
	9
	6
	11
	9
	4
	7
	8
	3
	16
	8
	13
	14
	8
	6
	14
	17
	13
	7
	17
	13
	16
	8
	13
	16
	8
